N = 16;
M = 36;
Edge_Start = [1, 1, 2, 2, 3, 3, 3, 4, 4, 5, 5, 6, 6, 7, 7, 7, 8, 8, 8, 9, 9, 9, 10, 10, 10, 11, 12, 12, 13, 13, 14, 14, 14, 15, 15, 16];
Edge_End = [2, 6, 1, 3, 2, 4, 8, 3, 5, 4, 10, 1, 7, 6, 8, 12, 3, 7, 9, 8, 10, 14, 5, 9, 11, 10, 7, 13, 12, 14, 9, 13, 15, 14, 16, 15];
L = [14, 7, 14, 12, 12, 6, 6, 6, 14, 14, 18, 7, 12, 12, 18, 10, 6, 18, 10, 10, 18, 16, 18, 18, 10, 10, 10, 2, 2, 15, 16, 15, 7, 7, 15, 15];
T = [10, 11, 10, 9, 9, 11, 1, 11, 13, 13, 10, 11, 21, 21, 5, 12, 1, 5, 5, 5, 15, 15, 10, 15, 3, 3, 12, 3, 3, 19, 15, 19, 8, 8, 12, 12];
Lower_Bound = [0, 12, 19, 30, 43, 13, 25, 21, 25, 41, 43, 38, 40, 40, 48, 62];
Upper_Bound = [1, 25, 24, 44, 49, 20, 30, 22, 29, 42, 49, 40, 64, 44, 51, 64];
Start = 1;
End = 16;
Time = 64;
